DATASET = "thpack4";
INSTANCE = "016";

WIDTH = 233;
HEIGHT = 220;
LENGTH = 587;

NO_OF_SHAPES = 10;
size = [|
  43,40,39 |
  97,76,40 |
  67,63,47 |
  98,57,38 |
  73,71,27 |
  66,56,41 |
  82,75,72 |
  93,71,43 |
  95,35,28 |
  88,72,68 |
|];

verticality = [|
  1,1,1 |
  0,1,1 |
  1,1,1 |
  0,1,1 |
  0,0,1 |
  1,1,1 |
  1,1,1 |
  0,1,1 |
  0,1,1 |
  1,1,1 |
|];

box_count = [
  16,
  13,
  11,
  14,
  9,
  14,
  13,
  19,
  21,
  8,
];
